20190630 18900.00 18600.00
20180628 19500.00 18500.00
20180213 10816.16 6685.84
20171207 10537.22 6685.84
20171019 10537.22 6685.84
20170531 10540.97 6685.84
20170510 10540.97 5658.06
20170119 10433.29 5658.06
20160603 10392.15 5658.06
20160512 10392.15 2500.00
20150630 10000.00 2500.00
